

$comment
    Angle = -180.000000 
$end 

$rem
    jobtype             sp                  
    frozen_scan         true                
    method              PBE0                
    basis               pc-1                
    sym_ignore          true                
$end

$molecule
0  1 
C       -2.81010000       1.66190000      -1.10900000
H       -2.20320000       2.38800000      -1.63060000
H       -3.72700000       2.16710000      -0.81440000
N       -2.12650000       1.18950000       0.07500000
C       -2.87020000       0.15970000       0.76020000
H       -3.77170000       0.60710000       1.17300000
H       -2.29680000      -0.22090000       1.59300000
C       -3.27630000      -1.01600000      -0.13550000
H       -2.43140000      -1.59260000      -0.48050000
H       -3.96320000      -1.67810000       0.37390000
N       -3.97280000      -0.51120000      -1.37140000
H       -4.82150000      -0.05500000      -1.06990000
C       -4.37380000      -1.62490000      -2.27990000
H       -4.91880000      -1.21570000      -3.11720000
H       -4.99770000      -2.31600000      -1.73360000
H       -3.48300000      -2.12590000      -2.62690000
C       -3.14120000       0.52670000      -2.07650000
H       -3.70930000       0.87330000      -2.92890000
H       -2.24720000       0.02650000      -2.42300000
C       -0.70700000       1.13370000       0.02240000
C        0.00000000       0.00000000       0.00000000
H       -0.40660000      -0.98590000       0.00540000
N        1.38270000       0.00000000       0.00000000
C        2.11020000       1.16060000       0.00000000
C        1.35500000       2.39310000       0.01920000
H        1.92930000       3.29770000       0.04230000
C        0.01810000       2.38450000       0.03790000
H       -0.53520000       3.30420000       0.08870000
N        3.39830000       1.19340000      -0.00470000
C        4.07600000       0.01560000      -0.01450000
C        3.44610000      -1.19120000      -0.05820000
H        3.97390000      -2.11920000      -0.13430000
C        2.02450000      -1.27430000      -0.04330000
O        1.34110000      -2.26350000      -0.07630000
C        5.55030000       0.14340000       0.01040000
C        6.37124328      -1.04375095       0.00264528
H        5.91454701      -2.01180684      -0.02507667
C        7.70287073      -0.92945229       0.03149700
F        8.48864903      -1.98480641       0.03907620
C        8.33537287       0.35185920       0.04959277
N        7.50318047       1.44656886       0.03523541
C        6.14199560       1.35501968       0.01618569
H        5.61000902       2.28383974      -0.01722641
C        8.33234314       2.54741088       0.03983878
H        7.95264481       3.54566316       0.03138798
C        9.58976784       2.04412532       0.06057104
H       10.50719098       2.59478083       0.07194993
N        9.58683685       0.68363406       0.06588605
$end


@@@



$comment
    Angle = -170.000000 
$end 

$rem
    scf_guess           read                
    jobtype             sp                  
    frozen_scan         true                
    method              PBE0                
    basis               pc-1                
    sym_ignore          true                
$end

$molecule
0  1 
C       -2.81010000       1.66190000      -1.10900000
H       -2.20320000       2.38800000      -1.63060000
H       -3.72700000       2.16710000      -0.81440000
N       -2.12650000       1.18950000       0.07500000
C       -2.87020000       0.15970000       0.76020000
H       -3.77170000       0.60710000       1.17300000
H       -2.29680000      -0.22090000       1.59300000
C       -3.27630000      -1.01600000      -0.13550000
H       -2.43140000      -1.59260000      -0.48050000
H       -3.96320000      -1.67810000       0.37390000
N       -3.97280000      -0.51120000      -1.37140000
H       -4.82150000      -0.05500000      -1.06990000
C       -4.37380000      -1.62490000      -2.27990000
H       -4.91880000      -1.21570000      -3.11720000
H       -4.99770000      -2.31600000      -1.73360000
H       -3.48300000      -2.12590000      -2.62690000
C       -3.14120000       0.52670000      -2.07650000
H       -3.70930000       0.87330000      -2.92890000
H       -2.24720000       0.02650000      -2.42300000
C       -0.70700000       1.13370000       0.02240000
C        0.00000000       0.00000000       0.00000000
H       -0.40660000      -0.98590000       0.00540000
N        1.38270000       0.00000000       0.00000000
C        2.11020000       1.16060000       0.00000000
C        1.35500000       2.39310000       0.01920000
H        1.92930000       3.29770000       0.04230000
C        0.01810000       2.38450000       0.03790000
H       -0.53520000       3.30420000       0.08870000
N        3.39830000       1.19340000      -0.00470000
C        4.07600000       0.01560000      -0.01450000
C        3.44610000      -1.19120000      -0.05820000
H        3.97390000      -2.11920000      -0.13430000
C        2.02450000      -1.27430000      -0.04330000
O        1.34110000      -2.26350000      -0.07630000
C        5.55030000       0.14340000       0.01040000
C        6.37294539      -1.02103763      -0.21471100
H        5.91744318      -1.97163264      -0.40275107
C        7.70467167      -0.90782209      -0.18615203
F        8.49217722      -1.94525098      -0.37284322
C        8.33530647       0.35371317       0.04400900
N        7.50122536       1.43088021       0.23151750
C        6.14005787       1.33825085       0.21698292
H        5.60612459       2.25659464       0.35260271
C        8.32858323       2.51783235       0.41427165
H        7.94718880       3.50088817       0.58424051
C        9.58698888       2.02386674       0.32908800
H       10.50358853       2.56812997       0.42203322
N        9.58633605       0.68295866       0.09900460
$end


@@@



$comment
    Angle = -160.000000 
$end 

$rem
    scf_guess           read                
    jobtype             sp                  
    frozen_scan         true                
    method              PBE0                
    basis               pc-1                
    sym_ignore          true                
$end

$molecule
0  1 
C       -2.81010000       1.66190000      -1.10900000
H       -2.20320000       2.38800000      -1.63060000
H       -3.72700000       2.16710000      -0.81440000
N       -2.12650000       1.18950000       0.07500000
C       -2.87020000       0.15970000       0.76020000
H       -3.77170000       0.60710000       1.17300000
H       -2.29680000      -0.22090000       1.59300000
C       -3.27630000      -1.01600000      -0.13550000
H       -2.43140000      -1.59260000      -0.48050000
H       -3.96320000      -1.67810000       0.37390000
N       -3.97280000      -0.51120000      -1.37140000
H       -4.82150000      -0.05500000      -1.06990000
C       -4.37380000      -1.62490000      -2.27990000
H       -4.91880000      -1.21570000      -3.11720000
H       -4.99770000      -2.31600000      -1.73360000
H       -3.48300000      -2.12590000      -2.62690000
C       -3.14120000       0.52670000      -2.07650000
H       -3.70930000       0.87330000      -2.92890000
H       -2.24720000       0.02650000      -2.42300000
C       -0.70700000       1.13370000       0.02240000
C        0.00000000       0.00000000       0.00000000
H       -0.40660000      -0.98590000       0.00540000
N        1.38270000       0.00000000       0.00000000
C        2.11020000       1.16060000       0.00000000
C        1.35500000       2.39310000       0.01920000
H        1.92930000       3.29770000       0.04230000
C        0.01810000       2.38450000       0.03790000
H       -0.53520000       3.30420000       0.08870000
N        3.39830000       1.19340000      -0.00470000
C        4.07600000       0.01560000      -0.01450000
C        3.44610000      -1.19120000      -0.05820000
H        3.97390000      -2.11920000      -0.13430000
C        2.02450000      -1.27430000      -0.04330000
O        1.34110000      -2.26350000      -0.07630000
C        5.55030000       0.14340000       0.01040000
C        6.37129615      -0.96106722      -0.42486183
H        5.91451500      -1.86673212      -0.76778204
C        7.70311854      -0.84886742      -0.39678000
F        8.48935978      -1.83503446      -0.77171546
C        8.33515193       0.35650462       0.03883176
N        7.50228892       1.38147231       0.42213320
C        6.14120939       1.28699823       0.41185806
H        5.60792411       2.16578094       0.71215883
C        8.33058123       2.42392470       0.77795608
H        7.95023617       3.36114785       1.12103083
C        9.58833756       1.95746112       0.59006303
H       10.50536794       2.48131784       0.76224203
N        9.58634142       0.67656337       0.13151068
$end


@@@



$comment
    Angle = -150.000000 
$end 

$rem
    scf_guess           read                
    jobtype             sp                  
    frozen_scan         true                
    method              PBE0                
    basis               pc-1                
    sym_ignore          true                
$end

$molecule
0  1 
C       -2.81010000       1.66190000      -1.10900000
H       -2.20320000       2.38800000      -1.63060000
H       -3.72700000       2.16710000      -0.81440000
N       -2.12650000       1.18950000       0.07500000
C       -2.87020000       0.15970000       0.76020000
H       -3.77170000       0.60710000       1.17300000
H       -2.29680000      -0.22090000       1.59300000
C       -3.27630000      -1.01600000      -0.13550000
H       -2.43140000      -1.59260000      -0.48050000
H       -3.96320000      -1.67810000       0.37390000
N       -3.97280000      -0.51120000      -1.37140000
H       -4.82150000      -0.05500000      -1.06990000
C       -4.37380000      -1.62490000      -2.27990000
H       -4.91880000      -1.21570000      -3.11720000
H       -4.99770000      -2.31600000      -1.73360000
H       -3.48300000      -2.12590000      -2.62690000
C       -3.14120000       0.52670000      -2.07650000
H       -3.70930000       0.87330000      -2.92890000
H       -2.24720000       0.02650000      -2.42300000
C       -0.70700000       1.13370000       0.02240000
C        0.00000000       0.00000000       0.00000000
H       -0.40660000      -0.98590000       0.00540000
N        1.38270000       0.00000000       0.00000000
C        2.11020000       1.16060000       0.00000000
C        1.35500000       2.39310000       0.01920000
H        1.92930000       3.29770000       0.04230000
C        0.01810000       2.38450000       0.03790000
H       -0.53520000       3.30420000       0.08870000
N        3.39830000       1.19340000      -0.00470000
C        4.07600000       0.01560000      -0.01450000
C        3.44610000      -1.19120000      -0.05820000
H        3.97390000      -2.11920000      -0.13430000
C        2.02450000      -1.27430000      -0.04330000
O        1.34110000      -2.26350000      -0.07630000
C        5.55030000       0.14340000       0.01040000
C        6.36634570      -0.86566189      -0.62142190
H        5.90585144      -1.70029262      -1.10907831
C        7.69825855      -0.75437958      -0.59398709
F        8.48028232      -1.65750570      -1.14542099
C        8.33491395       0.36014875       0.03421833
N        7.50633882       1.29984640       0.60129075
C        6.14541519       1.20281911       0.59488993
H        5.61535293       2.01415797       1.05051701
C        8.33827644       2.26854128       1.11984171
H        7.96169432       3.13068814       1.62544883
C        9.59377290       1.84692616       0.83556653
H       10.51247515       2.33698218       1.08223931
N        9.58685280       0.66464253       0.16241661
$end


@@@



$comment
    Angle = -140.000000 
$end 

$rem
    scf_guess           read                
    jobtype             sp                  
    frozen_scan         true                
    method              PBE0                
    basis               pc-1                
    sym_ignore          true                
$end

$molecule
0  1 
C       -2.81010000       1.66190000      -1.10900000
H       -2.20320000       2.38800000      -1.63060000
H       -3.72700000       2.16710000      -0.81440000
N       -2.12650000       1.18950000       0.07500000
C       -2.87020000       0.15970000       0.76020000
H       -3.77170000       0.60710000       1.17300000
H       -2.29680000      -0.22090000       1.59300000
C       -3.27630000      -1.01600000      -0.13550000
H       -2.43140000      -1.59260000      -0.48050000
H       -3.96320000      -1.67810000       0.37390000
N       -3.97280000      -0.51120000      -1.37140000
H       -4.82150000      -0.05500000      -1.06990000
C       -4.37380000      -1.62490000      -2.27990000
H       -4.91880000      -1.21570000      -3.11720000
H       -4.99770000      -2.31600000      -1.73360000
H       -3.48300000      -2.12590000      -2.62690000
C       -3.14120000       0.52670000      -2.07650000
H       -3.70930000       0.87330000      -2.92890000
H       -2.24720000       0.02650000      -2.42300000
C       -0.70700000       1.13370000       0.02240000
C        0.00000000       0.00000000       0.00000000
H       -0.40660000      -0.98590000       0.00540000
N        1.38270000       0.00000000       0.00000000
C        2.11020000       1.16060000       0.00000000
C        1.35500000       2.39310000       0.01920000
H        1.92930000       3.29770000       0.04230000
C        0.01810000       2.38450000       0.03790000
H       -0.53520000       3.30420000       0.08870000
N        3.39830000       1.19340000      -0.00470000
C        4.07600000       0.01560000      -0.01450000
C        3.44610000      -1.19120000      -0.05820000
H        3.97390000      -2.11920000      -0.13430000
C        2.02450000      -1.27430000      -0.04330000
O        1.34110000      -2.26350000      -0.07630000
C        5.55030000       0.14340000       0.01040000
C        6.35824444      -0.73772048      -0.79841882
H        5.89171573      -1.47737133      -1.41626975
C        7.69023935      -0.62722955      -0.77178126
F        8.46522064      -1.41805884      -1.48260496
C        8.33459977       0.36453482       0.03030891
N        7.51325201       1.18848264       0.76354653
C        6.15254745       1.08827122       0.76051719
H        5.62818530       1.80633271       1.35739641
C        8.35143505       2.05640332       1.42954050
H        7.98121509       2.81651143       2.08216803
C        9.60312976       1.69562040       1.05813901
H       10.52469422       2.13950856       1.37230210
N        9.58785465       0.64755833       0.19078334
$end


@@@



$comment
    Angle = -130.000000 
$end 

$rem
    scf_guess           read                
    jobtype             sp                  
    frozen_scan         true                
    method              PBE0                
    basis               pc-1                
    sym_ignore          true                
$end

$molecule
0  1 
C       -2.81010000       1.66190000      -1.10900000
H       -2.20320000       2.38800000      -1.63060000
H       -3.72700000       2.16710000      -0.81440000
N       -2.12650000       1.18950000       0.07500000
C       -2.87020000       0.15970000       0.76020000
H       -3.77170000       0.60710000       1.17300000
H       -2.29680000      -0.22090000       1.59300000
C       -3.27630000      -1.01600000      -0.13550000
H       -2.43140000      -1.59260000      -0.48050000
H       -3.96320000      -1.67810000       0.37390000
N       -3.97280000      -0.51120000      -1.37140000
H       -4.82150000      -0.05500000      -1.06990000
C       -4.37380000      -1.62490000      -2.27990000
H       -4.91880000      -1.21570000      -3.11720000
H       -4.99770000      -2.31600000      -1.73360000
H       -3.48300000      -2.12590000      -2.62690000
C       -3.14120000       0.52670000      -2.07650000
H       -3.70930000       0.87330000      -2.92890000
H       -2.24720000       0.02650000      -2.42300000
C       -0.70700000       1.13370000       0.02240000
C        0.00000000       0.00000000       0.00000000
H       -0.40660000      -0.98590000       0.00540000
N        1.38270000       0.00000000       0.00000000
C        2.11020000       1.16060000       0.00000000
C        1.35500000       2.39310000       0.01920000
H        1.92930000       3.29770000       0.04230000
C        0.01810000       2.38450000       0.03790000
H       -0.53520000       3.30420000       0.08870000
N        3.39830000       1.19340000      -0.00470000
C        4.07600000       0.01560000      -0.01450000
C        3.44610000      -1.19120000      -0.05820000
H        3.97390000      -2.11920000      -0.13430000
C        2.02450000      -1.27430000      -0.04330000
O        1.34110000      -2.26350000      -0.07630000
C        5.55030000       0.14340000       0.01040000
C        6.34723852      -0.58113043      -0.95047462
H        5.87253738      -1.20474159      -1.68002252
C        7.67930462      -0.47128070      -0.92476033
F        8.44463240      -1.12396935      -1.77302221
C        8.33421893       0.36952958       0.02722226
N        7.52281844       1.05076476       0.90397048
C        6.16238949       0.94683504       0.90370734
H        5.64603133       1.54861984       1.62347264
C        8.36965723       1.79395653       1.69764241
H        8.00820536       2.42816384       2.47731125
C        9.61612384       1.50814119       1.25101770
H       10.54165386       1.89489712       1.62361698
N        9.58931653       0.62582987       0.21574895
$end


@@@



$comment
    Angle = -120.000000 
$end 

$rem
    scf_guess           read                
    jobtype             sp                  
    frozen_scan         true                
    method              PBE0                
    basis               pc-1                
    sym_ignore          true                
$end

$molecule
0  1 
C       -2.81010000       1.66190000      -1.10900000
H       -2.20320000       2.38800000      -1.63060000
H       -3.72700000       2.16710000      -0.81440000
N       -2.12650000       1.18950000       0.07500000
C       -2.87020000       0.15970000       0.76020000
H       -3.77170000       0.60710000       1.17300000
H       -2.29680000      -0.22090000       1.59300000
C       -3.27630000      -1.01600000      -0.13550000
H       -2.43140000      -1.59260000      -0.48050000
H       -3.96320000      -1.67810000       0.37390000
N       -3.97280000      -0.51120000      -1.37140000
H       -4.82150000      -0.05500000      -1.06990000
C       -4.37380000      -1.62490000      -2.27990000
H       -4.91880000      -1.21570000      -3.11720000
H       -4.99770000      -2.31600000      -1.73360000
H       -3.48300000      -2.12590000      -2.62690000
C       -3.14120000       0.52670000      -2.07650000
H       -3.70930000       0.87330000      -2.92890000
H       -2.24720000       0.02650000      -2.42300000
C       -0.70700000       1.13370000       0.02240000
C        0.00000000       0.00000000       0.00000000
H       -0.40660000      -0.98590000       0.00540000
N        1.38270000       0.00000000       0.00000000
C        2.11020000       1.16060000       0.00000000
C        1.35500000       2.39310000       0.01920000
H        1.92930000       3.29770000       0.04230000
C        0.01810000       2.38450000       0.03790000
H       -0.53520000       3.30420000       0.08870000
N        3.39830000       1.19340000      -0.00470000
C        4.07600000       0.01560000      -0.01450000
C        3.44610000      -1.19120000      -0.05820000
H        3.97390000      -2.11920000      -0.13430000
C        2.02450000      -1.27430000      -0.04330000
O        1.34110000      -2.26350000      -0.07630000
C        5.55030000       0.14340000       0.01040000
C        6.33366237      -0.40064964      -1.07296918
H        5.84889912      -0.89068713      -1.89232262
C        7.66578658      -0.29127147      -1.04827611
F        8.41914315      -0.78417298      -2.00784856
C        8.33378301       0.37498125       0.02505219
N        7.53474744       0.89087725       1.01829590
C        6.17464224       0.78280804       1.02010963
H        5.66834878       1.24884983       1.84066113
C        8.39238931       1.48917522       1.91600132
H        8.04184504       1.97744510       2.79887226
C        9.63236031       1.29018500       1.40834210
H       10.56283877       1.61058026       1.82854788
N        9.59119403       0.60011736       0.23655489
$end


@@@



$comment
    Angle = -110.000000 
$end 

$rem
    scf_guess           read                
    jobtype             sp                  
    frozen_scan         true                
    method              PBE0                
    basis               pc-1                
    sym_ignore          true                
$end

$molecule
0  1 
C       -2.81010000       1.66190000      -1.10900000
H       -2.20320000       2.38800000      -1.63060000
H       -3.72700000       2.16710000      -0.81440000
N       -2.12650000       1.18950000       0.07500000
C       -2.87020000       0.15970000       0.76020000
H       -3.77170000       0.60710000       1.17300000
H       -2.29680000      -0.22090000       1.59300000
C       -3.27630000      -1.01600000      -0.13550000
H       -2.43140000      -1.59260000      -0.48050000
H       -3.96320000      -1.67810000       0.37390000
N       -3.97280000      -0.51120000      -1.37140000
H       -4.82150000      -0.05500000      -1.06990000
C       -4.37380000      -1.62490000      -2.27990000
H       -4.91880000      -1.21570000      -3.11720000
H       -4.99770000      -2.31600000      -1.73360000
H       -3.48300000      -2.12590000      -2.62690000
C       -3.14120000       0.52670000      -2.07650000
H       -3.70930000       0.87330000      -2.92890000
H       -2.24720000       0.02650000      -2.42300000
C       -0.70700000       1.13370000       0.02240000
C        0.00000000       0.00000000       0.00000000
H       -0.40660000      -0.98590000       0.00540000
N        1.38270000       0.00000000       0.00000000
C        2.11020000       1.16060000       0.00000000
C        1.35500000       2.39310000       0.01920000
H        1.92930000       3.29770000       0.04230000
C        0.01810000       2.38450000       0.03790000
H       -0.53520000       3.30420000       0.08870000
N        3.39830000       1.19340000      -0.00470000
C        4.07600000       0.01560000      -0.01450000
C        3.44610000      -1.19120000      -0.05820000
H        3.97390000      -2.11920000      -0.13430000
C        2.02450000      -1.27430000      -0.04330000
O        1.34110000      -2.26350000      -0.07630000
C        5.55030000       0.14340000       0.01040000
C        6.31792847      -0.20176194      -1.16218056
H        5.82151918      -0.54475032      -2.04671941
C        7.65009599      -0.09267134      -1.13857562
F        8.38952737      -0.40899428      -2.17994892
C        8.33330523       0.38072420       0.02386463
N        7.54867655       0.71367821       1.10304905
C        6.18893342       0.60117410       1.10618722
H        5.69445954       0.91613103       2.00236271
C        8.41894060       1.15132002       2.07798248
H        8.08111201       1.47805008       3.03708059
C        9.65134583       1.04837431       1.52533198
H       10.58760526       1.29519679       1.98086807
N        9.59343009       0.57120206       0.25256896
$end


@@@



$comment
    Angle = -100.000000 
$end 

$rem
    scf_guess           read                
    jobtype             sp                  
    frozen_scan         true                
    method              PBE0                
    basis               pc-1                
    sym_ignore          true                
$end

$molecule
0  1 
C       -2.81010000       1.66190000      -1.10900000
H       -2.20320000       2.38800000      -1.63060000
H       -3.72700000       2.16710000      -0.81440000
N       -2.12650000       1.18950000       0.07500000
C       -2.87020000       0.15970000       0.76020000
H       -3.77170000       0.60710000       1.17300000
H       -2.29680000      -0.22090000       1.59300000
C       -3.27630000      -1.01600000      -0.13550000
H       -2.43140000      -1.59260000      -0.48050000
H       -3.96320000      -1.67810000       0.37390000
N       -3.97280000      -0.51120000      -1.37140000
H       -4.82150000      -0.05500000      -1.06990000
C       -4.37380000      -1.62490000      -2.27990000
H       -4.91880000      -1.21570000      -3.11720000
H       -4.99770000      -2.31600000      -1.73360000
H       -3.48300000      -2.12590000      -2.62690000
C       -3.14120000       0.52670000      -2.07650000
H       -3.70930000       0.87330000      -2.92890000
H       -2.24720000       0.02650000      -2.42300000
C       -0.70700000       1.13370000       0.02240000
C        0.00000000       0.00000000       0.00000000
H       -0.40660000      -0.98590000       0.00540000
N        1.38270000       0.00000000       0.00000000
C        2.11020000       1.16060000       0.00000000
C        1.35500000       2.39310000       0.01920000
H        1.92930000       3.29770000       0.04230000
C        0.01810000       2.38450000       0.03790000
H       -0.53520000       3.30420000       0.08870000
N        3.39830000       1.19340000      -0.00470000
C        4.07600000       0.01560000      -0.01450000
C        3.44610000      -1.19120000      -0.05820000
H        3.97390000      -2.11920000      -0.13430000
C        2.02450000      -1.27430000      -0.04330000
O        1.34110000      -2.26350000      -0.07630000
C        5.55030000       0.14340000       0.01040000
C        6.30051490       0.00948958      -1.21539811
H        5.79122949      -0.17744229      -2.13852164
C        7.63270959       0.11848532      -1.19291517
F        8.35668493      -0.00983286      -2.28409411
C        8.33280014       0.38658392       0.02369566
N        7.56418254       0.52455174       1.15565477
C        6.20482879       0.40745208       1.15932470
H        5.72357025       0.56057295       2.10366415
C        8.44850434       0.79065649       2.17866419
H        8.12481317       0.94515264       3.18469840
C        9.67250355       0.79005642       1.59843265
H       10.61520081       0.95832948       2.07594939
N        9.59595677       0.53996255       0.26330459
$end


@@@



$comment
    Angle = -90.000000 
$end 

$rem
    scf_guess           read                
    jobtype             sp                  
    frozen_scan         true                
    method              PBE0                
    basis               pc-1                
    sym_ignore          true                
$end

$molecule
0  1 
C       -2.81010000       1.66190000      -1.10900000
H       -2.20320000       2.38800000      -1.63060000
H       -3.72700000       2.16710000      -0.81440000
N       -2.12650000       1.18950000       0.07500000
C       -2.87020000       0.15970000       0.76020000
H       -3.77170000       0.60710000       1.17300000
H       -2.29680000      -0.22090000       1.59300000
C       -3.27630000      -1.01600000      -0.13550000
H       -2.43140000      -1.59260000      -0.48050000
H       -3.96320000      -1.67810000       0.37390000
N       -3.97280000      -0.51120000      -1.37140000
H       -4.82150000      -0.05500000      -1.06990000
C       -4.37380000      -1.62490000      -2.27990000
H       -4.91880000      -1.21570000      -3.11720000
H       -4.99770000      -2.31600000      -1.73360000
H       -3.48300000      -2.12590000      -2.62690000
C       -3.14120000       0.52670000      -2.07650000
H       -3.70930000       0.87330000      -2.92890000
H       -2.24720000       0.02650000      -2.42300000
C       -0.70700000       1.13370000       0.02240000
C        0.00000000       0.00000000       0.00000000
H       -0.40660000      -0.98590000       0.00540000
N        1.38270000       0.00000000       0.00000000
C        2.11020000       1.16060000       0.00000000
C        1.35500000       2.39310000       0.01920000
H        1.92930000       3.29770000       0.04230000
C        0.01810000       2.38450000       0.03790000
H       -0.53520000       3.30420000       0.08870000
N        3.39830000       1.19340000      -0.00470000
C        4.07600000       0.01560000      -0.01450000
C        3.44610000      -1.19120000      -0.05820000
H        3.97390000      -2.11920000      -0.13430000
C        2.02450000      -1.27430000      -0.04330000
O        1.34110000      -2.26350000      -0.07630000
C        5.55030000       0.14340000       0.01040000
C        6.28195076       0.22668614      -1.23100484
H        5.75895039       0.20007651      -2.16493992
C        7.61415567       0.33578262      -1.20964368
F        8.32161372       0.40118296      -2.31711973
C        8.33228306       0.39238237       0.02455042
N        7.58079427       0.32924436       1.17451465
C        6.22184539       0.20752811       1.17790751
H        5.75479639       0.19297902       2.14148747
C        8.48018226       0.41814321       2.21498729
H        8.17162066       0.39494460       3.23724040
C        9.69519059       0.52308018       1.62542300
H       10.64478694       0.61021388       2.11090284
N        9.59869731       0.50734802       0.26843559
$end


@@@



$comment
    Angle = -80.000000 
$end 

$rem
    scf_guess           read                
    jobtype             sp                  
    frozen_scan         true                
    method              PBE0                
    basis               pc-1                
    sym_ignore          true                
$end

$molecule
0  1 
C       -2.81010000       1.66190000      -1.10900000
H       -2.20320000       2.38800000      -1.63060000
H       -3.72700000       2.16710000      -0.81440000
N       -2.12650000       1.18950000       0.07500000